# Tensile Test Simulation in LAMMPS with irradiated + relaxed file as input 

# specify the number of OpenMP threads
package omp 4

# initialize
units metal
dimension 3
boundary p p p
atom_style atomic

# create a simple FCC lattice
lattice fcc 3.52
region box block 0 10 0 10 0 10
create_box 1 box
create_atoms 1 box

# define atom types and masses
atom_modify sort 0 0.0
mass 1 1.0  # Define mass for atom ty

# define potential
pair_style eam 
pair_coeff * * Ni_u3.eam

# define timesteps
reset_timestep 0
timestep 0.01

# define relaxation parameters
fix 1 all npt temp 300 300 0.1 iso 0 0 1 drag 1
thermo 1000
thermo_style custom time step temp press etotal

# relaxation for 100 ps
run 10000

unfix 1 
#--------------------------
reset_timestep 0
timestep 0.001

# store final cell length for strain calculations
variable tmp equal "lx"
variable L0 equal ${tmp}
print "Initial Length, L0: ${L0}"

fix 1 all npt temp 300 300 1 x 0 0 1 y 0 0 1 drag 1
variable srate equal 1.0e10
variable srate1 equal "v_srate / 1.0e12" # adjusting strain rate unit from per second to per picosecond
fix 2 all deform 1 z erate ${srate1} units box remap x

# output strain and stress info to file
# for units metal, pressure is in [bars] = 100 [kPa] = 1/10000 [GPa]
# p2, p3, p4 are in GPa
variable strain equal "(lz - v_L0)/v_L0"
variable p1 equal "v_strain"
variable p2 equal "-pxx/10000"
variable p3 equal "-pyy/10000"
variable p4 equal "-pzz/10000"
fix def1 all print 10 "${p1} ${p2} ${p3} ${p4}" file Ni_Tensile_5KeV.def1.txt screen no

# dumping data
dump 1 all custom 1000 dump.Ni_Tensile_5KeV_*.dump id type x y z
dump_modify 1 sort id

# display thermo
thermo 1000
thermo_style custom time step v_strain temp v_p2 v_p3 v_p4 ke pe press

# run tensile test for 20 ps
run 20000

# write output data
write_data Test_Ni_Strained.lmp 

# end of simulation
print "Tensile test simulation completed."

