# LAMMPS input script for PKA radiation damage in pure Nickel at 5 keV
# Establish crystal model, apply 3D PBC, introduce PKA, simulate damage

# Initialize
units metal
boundary p p p
atom_style atomic

# Specify the number of OpenMP threads
package omp 4

# Read relaxed data file (output from relaxation)
read_data Ni_relaxed.lmp

# Define potential (EAM potential for Nickel)
pair_style eam
pair_coeff * * Ni_u3.eam

# Define relaxation parameters
reset_timestep 0
thermo 100
thermo_style custom step temp press etotal

# Apply 3D periodic boundary conditions (already applied by 'read_data')
# No need for create_box or create_atoms

# Dump settings for atomic configurations (optional)
# Use if you want to visualize the simulation progress
dump 1 all custom 100 Ni_pka_5kev_*.dump id type x y z vx vy vz fx fy fz
dump_modify 1 sort id

# PKA radiation damage process
# Define PKA properties
variable pka_energy equal 5.0  # PKA energy in keV
variable pka_direction_x equal 0  # PKA direction x-component
variable pka_direction_y equal 0  # PKA direction y-component
variable pka_direction_z equal 1  # PKA direction z-component

# Calculate center of the simulation cell
variable cell_center_x equal lx/2
variable cell_center_y equal ly/2
variable cell_center_z equal lz/2

# Define radius for selecting recoil atom 
variable radius equal 1.0 # This selects exactly one center atom

# Pick a random atom near the center as the recoil atom
region center_sphere sphere ${cell_center_x} ${cell_center_y} ${cell_center_z} ${radius}

# Create a group of atoms within the defined region
group center_atom region center_sphere

# Set PKA velocity to 1282 angstroms per picosecond in specified direction
variable pka_velocity equal 1282.0
velocity center_atom set 0 0 ${pka_velocity} units box

# Relaxation run in NVE ensemble after PKA introduction
fix 1 all nve
timestep 0.0005
run 1000
timestep 0.01
run 2450

# Write final configuration after PKA simulations
write_data Ni_pka_5keV_final.lmp
